c Sudoku solution
p cnf 729 0
124 0
155 0
196 0
248 0
266 0
293 0
337 0
354 0
422 0
453 0
525 0
564 0
579 0
583 0
636 0
668 0
718 0
328 0
316 0
765 0
776 0
486 0
834 0
843 0
973 0
363 0
889 0
399 0
949 0
744 0
546 0
991 0
984 0
958 0
856 0
926 0
274 0
188 0
697 0
494 0
614 0
623 0
659 0
113 0
733 0
729 0
751 0
827 0
811 0
862 0
967 0
517 0
419 0
221 0
552 0
531 0
438 0
598 0
257 0
169 0
177 0
141 0
342 0
132 0
215 0
239 0
282 0
912 0
935 0
645 0
461 0
447 0
475 0
672 0
681 0
371 0
385 0
878 0
895 0
787 0
792 0
